216 3070
5 34 58 118 205 
12 125 128 147 183 211 
8 11 22 26 28 33 40 41 42 44 46 53 55 56 65 67 68 76 77 84 92 94 100 106 107 112 115 119 124 126 129 131 137 143 150 153 159 161 162 163 165 171 174 180 181 182 184 187 189 190 191 195 201 202 204 206 209 214 215 
19 57 70 80 87 123 146 155 178 192 
1 34 58 118 205 
18 25 29 35 38 39 47 48 49 51 52 54 59 61 62 66 72 74 75 81 88 90 93 95 96 99 103 104 130 133 140 141 142 144 151 156 157 160 168 169 177 179 185 186 193 196 197 198 203 
176 
3 11 22 26 28 33 40 41 42 44 46 53 55 56 65 67 68 76 77 84 92 94 100 106 107 112 115 119 124 126 129 131 137 143 150 153 159 161 162 163 165 171 174 180 181 182 184 187 189 190 191 195 201 202 204 206 209 214 215 
134 
43 110 132 
3 8 22 26 28 33 40 41 42 44 46 53 55 56 65 67 68 76 77 84 92 94 100 106 107 112 115 119 124 126 129 131 137 143 150 153 159 161 162 163 165 171 174 180 181 182 184 187 189 190 191 195 201 202 204 206 209 214 215 
2 30 64 147 211 

65 143 181 
78 

108 166 
6 25 29 35 38 39 47 48 49 51 52 54 59 61 62 66 72 74 75 81 88 90 93 95 96 99 103 104 130 133 140 141 142 144 151 156 157 160 168 169 177 179 185 186 193 196 197 198 203 
4 57 70 80 87 123 146 155 178 192 
60 175 
23 45 116 117 135 148 167 
3 8 11 26 28 33 40 41 42 44 46 53 55 56 65 67 68 76 77 84 92 94 100 106 107 112 115 119 124 126 129 131 137 150 153 159 161 162 163 165 171 174 180 181 182 184 187 189 190 191 195 201 202 204 206 209 214 215 
21 45 63 116 117 135 148 167 

6 18 29 35 38 39 47 48 49 51 52 54 59 61 62 66 72 74 75 81 88 90 93 95 96 99 103 104 130 133 140 141 142 144 151 156 157 160 168 169 177 179 185 186 193 196 197 198 203 
3 8 11 22 28 33 40 41 42 44 46 53 55 56 65 67 68 76 77 84 92 94 100 106 107 112 115 119 124 126 129 131 137 143 150 153 159 161 162 163 165 171 174 180 181 182 184 187 189 190 191 195 201 202 204 206 209 214 215 

3 8 11 22 26 33 40 41 42 44 46 53 55 56 65 67 68 76 77 84 92 94 100 106 107 112 115 119 124 126 129 131 137 143 150 153 159 161 162 163 165 171 174 180 181 182 184 187 189 190 191 195 201 202 204 206 209 214 215 
6 18 25 35 38 39 47 48 51 52 54 59 62 66 72 74 75 81 88 90 93 95 96 99 103 104 130 133 140 141 142 144 151 156 157 160 168 169 177 179 185 186 193 197 198 203 
12 147 
65 143 

3 8 11 22 26 28 40 41 42 44 46 53 55 56 65 67 68 76 77 84 92 94 100 106 107 112 115 119 124 126 129 131 137 143 150 153 159 161 162 163 165 171 174 180 181 182 184 187 189 190 195 201 202 204 206 209 214 215 
1 5 58 118 205 
6 18 25 29 38 39 47 48 51 52 54 59 62 66 72 74 75 81 88 90 93 95 96 99 103 104 130 133 140 141 142 144 151 156 157 160 168 169 177 179 185 186 193 196 197 198 203 

82 120 127 
6 18 25 29 35 39 47 48 49 51 52 54 59 61 62 66 72 74 75 81 88 90 93 95 96 99 103 104 130 133 140 141 142 144 151 156 160 168 169 177 179 185 186 193 197 198 203 
6 18 25 29 35 38 48 49 51 52 59 61 62 66 72 74 75 81 88 90 93 95 96 99 103 104 130 133 140 141 142 144 151 156 160 177 179 185 186 193 197 198 203 
3 8 11 22 26 28 33 41 42 44 46 53 55 56 65 67 68 76 77 84 92 94 100 106 107 112 115 119 124 126 129 131 137 143 150 153 159 161 162 163 165 171 174 180 181 182 184 187 189 190 195 201 202 204 206 209 214 215 
3 8 11 22 26 28 33 40 42 44 46 53 55 56 65 67 68 76 77 84 92 94 100 106 107 112 115 119 124 126 129 131 137 143 150 153 159 161 162 163 165 171 174 180 181 182 184 187 189 190 191 195 201 202 204 206 209 214 215 
3 8 11 22 26 28 33 40 41 44 46 53 55 56 65 67 68 76 77 84 92 94 100 106 107 112 115 119 124 126 129 131 137 143 150 153 159 161 162 163 165 171 174 180 181 182 184 187 189 190 195 201 202 204 206 209 214 215 
10 110 132 
3 8 11 22 26 28 33 40 41 42 46 53 55 56 65 67 68 76 77 84 92 94 100 106 107 112 115 119 124 126 129 131 137 143 150 153 159 161 162 163 165 171 174 180 181 182 184 187 189 190 195 201 202 204 206 209 214 215 
21 23 116 117 135 148 167 
3 8 11 22 26 28 33 40 41 42 44 53 55 56 65 67 68 76 77 84 92 94 100 106 107 112 115 119 124 126 129 131 137 143 150 153 159 161 162 163 165 171 174 180 181 182 184 187 189 190 191 195 201 202 204 206 209 214 215 
6 18 25 29 35 38 48 51 52 54 59 62 66 72 74 75 81 88 90 93 95 96 99 103 104 130 133 140 141 144 151 156 157 160 168 169 177 179 185 186 193 198 203 
6 18 25 29 35 38 39 47 49 51 52 54 59 61 62 66 72 74 75 81 88 90 93 95 96 99 103 104 130 133 140 141 142 144 151 156 157 160 168 169 177 179 185 186 193 196 197 198 203 
6 18 25 38 39 48 51 52 59 61 62 66 72 74 75 81 88 93 96 99 103 104 133 140 141 142 144 156 179 185 193 197 198 203 

6 18 25 29 35 38 39 47 48 49 52 54 59 61 62 66 72 74 75 81 88 90 93 95 96 99 103 104 130 133 140 141 142 144 151 156 157 160 168 169 177 179 185 186 193 196 197 198 203 
6 18 25 29 35 38 39 47 48 49 51 54 59 62 66 72 74 75 81 88 90 93 95 96 99 103 104 130 133 140 141 142 144 151 156 157 160 168 169 177 179 185 186 193 196 197 198 203 
3 8 11 22 26 28 33 40 41 42 44 46 55 56 65 67 68 76 77 84 92 94 100 106 107 112 115 119 124 126 129 131 137 143 150 153 159 161 162 163 165 171 174 180 181 182 184 187 189 190 191 195 201 202 204 206 209 214 215 
6 18 25 29 35 38 47 48 51 52 59 62 66 72 74 75 81 88 90 93 95 96 99 103 104 130 133 140 141 142 144 151 156 157 160 168 169 177 179 185 186 193 196 197 198 203 
3 8 11 22 26 28 33 40 41 42 44 46 53 56 65 67 68 76 77 84 92 94 100 106 107 112 115 119 124 126 129 131 137 143 150 153 159 161 162 163 165 171 174 180 181 182 184 187 189 190 195 201 202 204 206 209 214 215 
3 8 11 22 26 28 33 40 41 42 44 46 53 55 65 67 68 76 77 84 92 94 100 106 107 112 115 119 124 126 129 131 137 143 150 153 159 161 162 163 165 171 174 180 181 182 184 187 189 190 191 195 201 202 204 206 209 214 215 
4 19 70 80 87 123 146 178 192 
1 5 34 118 205 
6 18 25 29 35 38 39 47 48 49 51 52 54 61 62 66 72 74 75 81 88 90 93 95 96 99 103 104 130 133 140 141 142 144 151 156 168 177 179 185 186 193 197 198 203 
20 
6 18 25 38 39 48 49 51 59 62 66 72 74 75 81 88 90 93 95 99 103 104 130 133 140 141 142 144 156 179 185 193 197 198 203 
6 18 25 29 35 38 39 47 48 49 51 52 54 59 61 66 72 74 75 81 88 90 93 95 96 99 103 104 130 133 140 141 142 144 151 156 157 160 168 169 177 179 185 186 193 196 197 198 203 
23 117 135 145 167 188 
12 147 211 
3 8 11 14 22 26 28 31 33 40 41 42 44 46 53 55 56 67 68 76 77 84 92 94 100 106 107 112 115 119 124 129 131 137 143 153 159 161 162 163 165 171 174 180 181 182 184 187 189 190 195 201 202 204 206 209 214 215 
6 18 25 29 35 38 39 47 48 49 51 52 54 59 61 62 72 74 75 81 88 90 93 95 96 99 103 104 130 133 140 141 142 144 151 156 160 168 169 177 179 185 186 193 197 198 203 
3 8 11 22 26 28 33 40 41 42 44 46 53 55 56 65 68 76 77 84 92 94 100 106 107 112 115 119 124 126 129 131 137 143 150 153 159 161 162 163 165 171 174 180 181 182 184 187 189 190 191 195 201 202 204 206 209 214 215 
3 8 11 22 26 28 33 40 41 42 44 46 53 55 56 65 67 76 77 84 92 94 100 106 107 112 115 119 124 126 129 131 137 143 150 153 159 161 162 163 165 171 174 180 181 182 184 187 189 190 191 195 201 202 204 206 209 214 215 

4 19 57 80 87 123 146 155 178 192 

6 18 25 29 35 38 39 47 48 49 51 52 54 59 61 62 66 74 75 81 88 90 93 95 96 99 103 104 130 133 140 141 142 144 151 156 157 160 168 169 177 179 185 186 193 196 197 198 203 
138 
6 18 25 29 35 38 39 47 48 49 51 52 54 59 61 62 66 72 75 81 88 90 93 95 96 99 103 104 130 133 140 141 142 144 151 156 157 160 168 169 177 179 185 186 193 196 197 198 203 
6 18 25 29 35 38 39 47 48 49 51 52 54 59 61 62 66 72 74 81 88 90 93 95 96 99 103 104 130 133 140 141 142 144 151 156 160 168 177 179 185 186 193 197 198 203 
3 8 11 22 26 28 33 40 41 42 44 46 53 55 56 65 67 68 77 84 92 94 100 106 107 112 115 119 124 126 129 131 137 143 150 153 159 161 162 163 165 171 174 180 181 182 184 187 189 190 191 195 201 202 204 206 209 214 215 
3 8 11 22 26 28 33 40 41 42 44 46 53 55 56 65 67 68 76 84 92 94 100 106 107 112 115 119 124 126 129 131 137 143 150 153 159 161 162 163 165 171 174 180 181 182 184 187 189 190 191 195 201 202 204 206 209 214 215 
15 
86 91 111 117 172 216 
4 19 57 70 87 123 146 155 178 192 
6 18 25 29 35 38 39 47 48 49 51 52 54 59 61 62 66 72 74 75 88 90 93 95 96 99 103 104 130 133 140 141 142 144 151 156 157 160 168 169 177 179 185 186 193 196 197 198 203 
37 120 212 

3 8 11 22 26 28 33 40 41 42 44 46 53 55 56 65 67 68 76 77 92 94 100 106 107 112 115 119 124 126 129 131 137 143 150 153 159 161 162 163 165 171 174 180 181 182 184 187 189 190 191 195 201 202 204 206 209 214 215 

79 111 
4 19 57 70 80 123 146 155 178 192 
6 18 25 29 35 38 39 47 48 49 51 52 54 59 61 62 66 72 74 75 81 90 93 95 96 99 103 104 130 133 140 141 142 144 151 156 157 160 168 169 177 179 185 186 193 196 197 198 203 
145 
6 18 25 29 35 38 39 47 48 51 52 54 59 61 62 66 72 74 75 81 88 93 95 96 99 103 104 130 133 140 141 142 144 151 156 157 160 168 169 177 179 185 186 193 196 197 198 203 
79 111 172 216 
3 8 11 22 26 28 33 40 41 42 44 46 53 55 56 65 67 68 76 77 84 94 100 106 107 112 115 119 124 126 129 131 137 143 150 153 159 161 162 163 165 171 174 180 181 182 184 187 189 190 191 195 201 202 204 206 209 214 215 
6 18 25 29 35 38 39 47 48 49 51 52 54 59 61 62 66 72 74 75 81 88 90 95 96 99 103 104 130 133 140 141 142 144 151 156 160 168 169 177 179 185 186 193 197 198 203 
3 8 11 22 26 28 33 40 41 42 44 46 53 55 56 65 67 68 76 77 84 92 100 106 107 112 115 119 124 126 129 131 137 143 150 153 159 161 162 163 165 171 174 180 181 182 184 187 189 190 195 201 202 204 206 209 214 215 
6 18 25 29 35 38 39 47 48 51 52 54 59 61 62 66 72 74 75 81 88 90 93 96 99 103 104 130 133 140 141 142 144 151 156 157 160 168 169 177 179 185 186 193 196 197 198 203 
6 18 25 29 35 38 39 47 48 49 51 52 54 59 62 66 72 74 75 81 88 90 93 95 99 103 104 130 133 140 141 142 144 151 156 157 160 168 169 177 179 185 186 193 196 197 198 203 
138 200 

6 18 25 29 35 38 39 47 48 49 51 52 54 59 61 62 66 72 74 75 81 88 90 93 95 96 103 104 130 133 140 141 142 144 151 156 157 160 168 169 177 179 185 186 193 196 197 198 203 
3 8 11 22 26 28 33 40 41 42 44 46 53 55 56 65 67 68 76 77 84 92 94 106 107 112 115 119 124 126 129 131 137 150 153 159 161 162 163 165 171 174 180 181 182 184 187 189 190 195 201 202 204 206 209 214 215 

173 207 
6 18 25 29 35 38 39 47 48 49 51 52 54 59 61 62 66 72 74 75 81 88 90 93 95 96 99 104 130 133 140 141 142 144 151 156 160 168 169 177 179 185 186 193 197 198 203 
6 18 25 29 35 38 39 47 48 49 51 52 54 59 61 62 66 72 74 75 81 88 90 93 95 96 99 103 130 133 140 141 142 144 151 156 157 160 168 169 177 179 185 186 193 196 197 198 203 

3 8 11 22 26 28 33 40 41 42 44 46 53 55 56 65 67 68 76 77 84 92 94 100 107 112 115 119 124 126 129 131 137 143 150 153 159 161 162 163 165 171 174 180 181 182 184 187 189 190 191 195 201 202 204 206 209 214 215 
3 8 11 22 26 28 33 40 41 42 44 46 53 55 56 65 67 68 76 77 84 92 94 100 106 112 115 119 124 126 129 131 137 143 150 153 159 161 162 163 165 171 174 180 181 182 184 187 189 190 195 201 202 204 206 209 214 215 
17 166 

10 43 132 
79 86 91 117 172 216 
3 8 11 22 26 28 33 40 41 42 44 46 53 55 56 65 67 68 76 77 84 92 94 100 106 107 115 119 124 126 129 131 137 143 150 153 159 161 162 163 165 171 174 180 181 182 184 187 189 190 191 195 201 202 204 206 209 214 215 

152 
3 8 11 22 26 28 33 40 41 42 44 46 53 55 56 65 67 68 76 77 84 92 94 100 106 107 112 119 124 126 129 131 137 143 150 153 159 161 162 163 165 171 174 180 181 182 184 187 189 190 191 195 201 202 204 206 209 214 215 
21 23 45 117 135 145 148 167 
21 23 45 63 79 111 116 135 145 148 167 188 
1 5 34 58 205 
3 8 11 22 26 28 33 40 41 42 44 46 53 55 56 65 67 68 76 77 84 92 94 100 106 107 112 115 124 126 129 131 137 143 150 153 159 161 162 163 165 171 174 180 181 182 184 187 189 190 191 195 201 202 204 206 209 214 215 
37 82 

145 
4 19 57 70 80 87 146 155 178 192 
3 8 11 22 26 28 33 40 41 42 44 46 53 55 56 65 67 68 76 77 84 92 94 100 106 107 112 115 119 126 129 131 137 143 150 153 159 161 162 163 165 171 174 180 181 182 184 187 189 190 191 195 201 202 204 206 209 214 215 
2 128 
3 8 11 22 26 28 33 40 41 42 44 46 53 55 56 67 68 76 77 84 92 94 100 106 107 112 115 119 124 129 131 137 143 150 153 159 161 162 163 165 171 174 180 182 184 187 189 190 191 195 201 202 204 206 209 214 215 
37 
2 125 147 183 
3 8 11 22 26 28 33 40 41 42 44 46 53 55 56 65 67 68 76 77 84 92 94 100 106 107 112 115 119 124 126 131 137 143 150 153 159 161 162 163 165 171 174 180 181 182 184 187 189 190 191 195 201 202 204 206 209 214 215 
6 18 25 29 35 38 39 47 48 51 52 54 59 61 62 66 72 74 75 81 88 90 93 95 96 99 103 104 133 140 141 142 144 151 156 157 160 168 169 177 179 185 186 193 197 198 203 
3 8 11 22 26 28 33 40 41 42 44 46 53 55 56 65 67 68 76 77 84 92 94 100 106 107 112 115 119 124 126 129 137 143 150 153 159 161 162 163 165 171 174 180 181 182 184 187 189 190 191 195 201 202 204 206 209 214 215 
10 43 110 
6 18 25 29 35 38 39 47 48 49 51 52 54 59 61 62 66 72 74 75 81 88 90 93 95 96 99 103 104 130 140 141 142 144 151 156 160 168 177 179 185 186 193 197 198 203 
9 
21 23 45 63 116 117 148 167 188 

3 8 11 22 26 28 33 40 41 42 44 46 53 55 56 65 67 68 76 77 84 92 94 100 106 107 112 115 119 124 126 129 131 143 150 153 159 161 162 163 165 171 174 180 181 182 184 187 189 190 191 195 201 202 204 206 209 214 215 
73 97 200 
149 
6 18 25 29 35 38 39 47 48 49 51 52 54 59 61 62 66 72 74 75 81 88 90 93 95 96 99 103 104 130 133 141 142 144 151 156 160 168 177 179 185 186 193 197 198 203 
6 18 25 29 35 38 39 47 48 49 51 52 54 59 61 62 66 72 74 75 81 88 90 93 95 96 99 103 104 130 133 140 142 144 151 156 157 160 168 169 177 179 185 186 193 196 197 198 203 
6 18 25 29 35 38 39 48 49 51 52 54 59 61 62 66 72 74 75 81 88 90 93 95 96 99 103 104 130 133 140 141 144 151 156 160 177 179 185 186 193 197 198 203 
3 8 11 14 26 28 31 33 40 41 42 44 46 53 55 56 65 67 68 76 77 84 92 94 106 107 112 115 119 124 126 129 131 137 150 153 159 161 162 163 165 171 174 180 181 182 184 187 189 190 195 201 202 204 206 209 214 215 
6 18 25 29 35 38 39 47 48 49 51 52 54 59 61 62 66 72 74 75 81 88 90 93 95 96 99 103 104 130 133 140 141 142 151 156 160 168 169 177 179 185 186 193 197 198 203 
63 89 116 117 122 188 
4 19 57 70 80 87 123 155 178 192 
2 12 30 64 128 211 
21 23 45 116 117 135 167 
139 
3 8 11 22 26 28 33 40 41 42 44 46 53 55 56 67 68 76 77 84 92 94 100 106 107 112 115 119 124 126 129 131 137 143 153 159 161 162 163 165 171 174 180 181 182 184 187 189 190 195 201 202 204 206 209 214 215 
6 18 25 29 35 38 39 47 48 51 52 54 59 62 66 72 74 75 81 88 90 93 95 96 99 103 104 130 133 140 141 142 144 156 157 160 168 169 177 179 185 186 193 196 197 198 203 
114 
3 8 11 22 26 28 33 40 41 42 44 46 53 55 56 65 67 68 76 77 84 92 94 100 106 107 112 115 119 124 126 129 131 137 143 150 159 161 162 163 165 171 174 180 181 182 184 187 189 190 195 201 202 204 206 209 214 215 

4 19 70 80 87 123 146 178 192 
6 18 25 29 35 38 39 47 48 49 51 52 54 59 61 62 66 72 74 75 81 88 90 93 95 96 99 103 104 130 133 140 141 142 144 151 157 160 168 169 177 179 185 186 193 196 197 198 203 
6 18 25 29 35 47 48 51 52 54 62 72 74 81 88 90 95 96 99 104 130 141 151 156 160 168 169 177 179 185 186 193 196 198 

3 8 11 22 26 28 33 40 41 42 44 46 53 55 56 65 67 68 76 77 84 92 94 100 106 107 112 115 119 124 126 129 131 137 143 150 153 161 162 163 165 171 174 180 181 182 184 187 189 190 191 195 201 202 204 206 209 214 215 
6 18 25 29 35 38 39 47 48 51 52 54 62 66 72 74 75 81 88 90 93 95 96 99 103 104 130 133 140 141 142 144 151 156 157 168 169 177 179 185 186 193 196 197 198 203 
3 8 11 22 26 28 33 40 41 42 44 46 53 55 56 65 67 68 76 77 84 92 94 100 106 107 112 115 119 124 126 129 131 137 143 150 153 159 162 163 165 171 174 180 181 182 184 187 189 190 191 195 201 202 204 206 209 214 215 
3 8 11 22 26 28 33 40 41 42 44 46 53 55 56 65 67 68 76 77 84 92 94 100 106 107 112 115 119 124 126 129 131 137 143 150 153 159 161 163 165 171 174 180 181 182 184 187 189 190 191 195 201 202 204 206 209 214 215 
3 8 11 22 26 28 33 40 41 42 44 46 53 55 56 65 67 68 76 77 84 92 94 100 106 107 112 115 119 124 126 129 131 137 143 150 153 159 161 162 165 171 174 180 181 182 184 187 189 190 195 201 202 204 206 209 214 215 

3 8 11 22 26 28 33 40 41 42 44 46 53 55 56 65 67 68 76 77 84 92 94 100 106 107 112 115 119 124 126 129 131 137 143 150 153 159 161 162 163 171 174 180 181 182 184 187 189 190 195 201 202 204 206 209 214 215 
17 108 
21 23 45 63 116 117 135 148 
6 18 25 29 35 38 47 48 51 52 54 59 62 66 72 74 75 81 88 90 93 95 96 99 103 104 130 133 140 141 144 151 156 157 160 169 177 179 185 186 193 198 203 
6 18 25 29 35 38 47 48 51 52 54 62 66 72 74 81 88 90 93 95 96 99 103 104 130 141 144 151 156 157 160 168 177 179 185 186 193 198 203 

3 8 11 22 26 28 33 40 41 42 44 46 53 55 56 65 67 68 76 77 84 92 94 100 106 107 112 115 119 124 126 129 131 137 143 150 153 159 161 162 163 165 174 180 181 182 184 187 189 190 191 195 201 202 204 206 209 214 215 
79 91 111 216 
102 207 
3 8 11 22 26 28 33 40 41 42 44 46 53 55 56 65 67 68 76 77 84 92 94 100 106 107 112 115 119 124 126 129 131 137 143 150 153 159 161 162 163 165 171 180 181 182 184 187 189 190 195 201 202 204 206 209 214 215 
20 
7 
6 18 25 29 35 38 39 47 48 51 52 54 59 62 66 72 74 75 81 88 90 93 95 96 99 103 104 130 133 140 141 142 144 151 156 157 160 168 169 179 185 186 193 196 197 198 203 
4 19 57 70 80 87 123 146 155 192 
6 18 25 29 35 38 39 47 48 49 51 52 54 59 61 62 66 72 74 75 81 88 90 93 95 96 99 103 104 130 133 140 141 142 144 151 156 157 160 168 169 177 185 186 193 196 197 198 203 
3 8 11 22 26 28 33 40 41 42 44 46 53 55 56 65 67 68 76 77 84 92 94 100 106 107 112 115 119 124 126 129 131 137 143 150 153 159 161 162 163 165 171 174 181 182 184 187 189 190 191 195 201 202 204 206 209 214 215 
3 8 11 14 22 26 28 33 40 41 42 44 46 53 55 56 65 67 68 76 77 84 92 94 100 106 107 112 115 119 124 129 131 137 143 150 153 159 161 162 163 165 171 174 180 182 184 187 189 190 195 201 202 204 206 209 214 215 
3 8 11 22 26 28 33 40 41 42 44 46 53 55 56 65 67 68 76 77 84 92 94 100 106 107 112 115 119 124 126 129 131 137 143 150 153 159 161 162 163 165 171 174 180 181 184 187 189 190 191 195 201 202 204 206 209 214 215 
2 128 
3 8 11 22 26 28 33 40 41 42 44 46 53 55 56 65 67 68 76 77 84 92 94 100 106 107 112 115 119 124 126 129 131 137 143 150 153 159 161 162 163 165 171 174 180 181 182 187 189 190 191 195 201 202 204 206 209 214 215 
6 18 25 29 35 38 39 47 48 49 51 52 54 59 61 62 66 72 74 75 81 88 90 93 95 96 99 103 104 130 133 140 141 142 144 151 156 157 160 168 169 177 179 186 193 196 197 198 203 
6 18 25 29 35 38 39 47 48 51 52 54 59 62 66 72 74 75 81 88 90 93 95 96 99 103 104 130 133 140 141 142 144 151 156 157 160 168 169 177 179 185 193 197 198 203 
3 8 11 22 26 28 33 40 41 42 44 46 53 55 56 65 67 68 76 77 84 92 94 100 106 107 112 115 119 124 126 129 131 137 143 150 153 159 161 162 163 165 171 174 180 181 182 184 189 190 191 195 201 202 204 206 209 214 215 
63 117 135 145 
3 8 11 22 26 28 33 40 41 42 44 46 53 55 56 65 67 68 76 77 84 92 94 100 106 107 112 115 119 124 126 129 131 137 143 150 153 159 161 162 163 165 171 174 180 181 182 184 187 190 191 195 201 202 204 206 209 214 215 
3 8 11 22 26 28 33 40 41 42 44 46 53 55 56 65 67 68 76 77 84 92 94 100 106 107 112 115 119 124 126 129 131 137 143 150 153 159 161 162 163 165 171 174 180 181 182 184 187 189 195 201 202 204 206 209 214 215 
3 8 11 22 26 28 41 46 53 56 67 68 76 77 84 92 106 112 115 119 124 126 129 131 137 159 161 162 171 180 182 184 187 189 195 201 202 204 206 209 214 
4 19 57 70 80 87 123 146 155 178 
6 18 25 29 35 38 39 47 48 49 51 52 54 59 61 62 66 72 74 75 81 88 90 93 95 96 99 103 104 130 133 140 141 142 144 151 156 157 160 168 169 177 179 185 186 196 197 198 203 

3 8 11 22 26 28 33 40 41 42 44 46 53 55 56 65 67 68 76 77 84 92 94 100 106 107 112 115 119 124 126 129 131 137 143 150 153 159 161 162 163 165 171 174 180 181 182 184 187 189 190 191 201 202 204 206 209 214 215 
6 18 25 35 48 51 52 54 62 72 74 81 88 90 95 96 99 104 141 151 156 157 160 177 179 185 193 198 
6 18 25 29 35 38 39 48 49 51 52 54 59 61 62 66 72 74 75 81 88 90 93 95 96 99 103 104 130 133 140 141 142 144 151 156 160 177 179 185 186 193 198 203 
6 18 25 29 35 38 39 47 48 49 51 52 54 59 61 62 66 72 74 75 81 88 90 93 95 96 99 103 104 130 133 140 141 142 144 151 156 157 160 168 169 177 179 185 186 193 196 197 203 

97 138 
3 8 11 22 26 28 33 40 41 42 44 46 53 55 56 65 67 68 76 77 84 92 94 100 106 107 112 115 119 124 126 129 131 137 143 150 153 159 161 162 163 165 171 174 180 181 182 184 187 189 190 191 195 202 204 206 209 214 215 
3 8 11 22 26 28 33 40 41 42 44 46 53 55 56 65 67 68 76 77 84 92 94 100 106 107 112 115 119 124 126 129 131 137 143 150 153 159 161 162 163 165 171 174 180 181 182 184 187 189 190 191 195 201 204 206 209 214 215 
6 18 25 29 35 38 39 47 48 49 51 52 54 59 61 62 66 72 74 75 81 88 90 93 95 96 99 103 104 130 133 140 141 142 144 151 156 160 168 169 177 179 185 186 193 197 198 
3 8 11 22 26 28 33 40 41 42 44 46 53 55 56 65 67 68 76 77 84 92 94 100 106 107 112 115 119 124 126 129 131 137 143 150 153 159 161 162 163 165 171 174 180 181 182 184 187 189 190 191 195 201 202 206 209 214 215 
1 5 34 58 118 
3 8 11 22 26 28 33 40 41 42 44 46 53 55 56 65 67 68 76 77 84 92 94 100 106 107 112 115 119 124 126 129 131 137 143 150 153 159 161 162 163 165 171 174 180 181 182 184 187 189 190 191 195 201 202 204 209 214 215 
102 173 

3 8 11 22 26 28 33 40 41 42 44 46 53 55 56 65 67 68 76 77 84 92 94 100 106 107 112 115 119 124 126 129 131 137 143 150 153 159 161 162 163 165 171 174 180 181 182 184 187 189 190 191 195 201 202 204 206 214 215 

2 12 64 147 
82 

3 8 11 22 26 28 33 40 41 42 44 46 53 55 56 65 67 68 76 77 84 92 94 100 106 107 112 115 119 124 126 129 131 137 143 150 153 159 161 162 163 165 171 174 180 181 182 184 187 189 190 191 195 201 202 204 206 209 215 
3 8 11 22 26 28 33 40 41 42 44 46 53 55 56 65 67 68 76 77 84 92 94 100 106 107 112 115 119 124 126 129 131 137 143 150 153 159 161 162 163 165 171 174 180 181 182 184 187 189 190 195 201 202 204 206 209 214 
79 91 111 172 
